\ENCODING=ISO-8859-1
\Problem name: IloCplex

Maximize
 obj1:
Subject To
 c1: 180 G_1 + 70 G_2 + 50 G_3 + 60 G_4 + 80 G_5 <= 300
Bounds
      G_1 >= 0
      G_2 >= 0
      G_3 >= 0
      G_4 >= 0
      G_5 >= 0
Generals
 G_1  G_2  G_3  G_4  G_5 
End
